
Gurobi 11.0.0 (linux64) logging started Thu Sep 19 18:14:23 2024

Set parameter LogFile to value "/lustre1/scratch/348/vsc34888/JointResearch/05.Models/06.Benchmarking/L.Cont_Investments_per_hour/IEEE118_mod1_ByStages_nc80/openStarNet_IEEE118_mod1_ByStages_nc80.log"
Set parameter Method to value 2
Set parameter MIPFocus to value 1
Set parameter Presolve to value 2
Set parameter RINS to value 100
Set parameter MIPGap to value 0.01
Set parameter Threads to value 36
Set parameter TimeLimit to value 259200
Set parameter IterationLimit to value 760000000
Gurobi Optimizer version 11.0.0 build v11.0.0rc2 (linux64 - "Rocky Linux 8.9 (Green Obsidian)")

CPU model: Intel(R) Xeon(R) Gold 6240 CPU @ 2.60GHz, instruction set [SSE2|AVX|AVX2|AVX512]
Thread count: 36 physical cores, 36 logical processors, using up to 36 threads

Optimize a model with 113683 rows, 83796 columns and 292328 nonzeros
Model fingerprint: 0x52c03dc6
Variable types: 83762 continuous, 34 integer (34 binary)
Coefficient statistics:
  Matrix range     [5e-04, 9e+03]
  Objective range  [1e+00, 1e+00]
  Bounds range     [1e-04, 3e+00]
  RHS range        [2e-04, 3e+00]
Presolve removed 77003 rows and 38760 columns
Presolve time: 0.42s
Presolved: 36680 rows, 45036 columns, 134307 nonzeros
Variable types: 45002 continuous, 34 integer (34 binary)
Root relaxation presolved: 36680 rows, 45036 columns, 134307 nonzeros

Root barrier log...

Ordering time: 0.02s

Barrier statistics:
 Dense cols : 34
 AA' NZ     : 1.668e+05
 Factor NZ  : 6.469e+05 (roughly 40 MB of memory)
 Factor Ops : 1.358e+07 (less than 1 second per iteration)
 Threads    : 35

                  Objective                Residual
Iter       Primal          Dual         Primal    Dual     Compl     Time
   0   9.08002689e+06 -1.24998084e+09  1.51e+01 3.08e+03  5.01e+04     1s
   1   2.14540430e+06 -4.72200381e+08  3.27e+00 1.98e-08  1.02e+04     1s
   2   6.19344988e+05 -3.77431258e+08  6.99e-01 1.60e-08  4.62e+03     1s
   3   3.68416533e+05 -6.49885112e+07  2.35e-01 2.89e-09  7.68e+02     1s
   4   2.35776507e+05 -1.24201600e+07  1.42e-02 5.40e-10  1.20e+02     1s
   5   1.67141795e+05 -3.21820781e+06  1.65e-03 1.31e-10  3.14e+01     1s
   6   1.03265367e+05 -8.10340036e+05  5.04e-04 3.64e-11  8.46e+00     1s
   7   4.65960046e+04 -2.25096413e+05  1.69e-04 1.22e-11  2.51e+00     1s
   8   1.73166195e+04 -7.27767423e+04  4.05e-05 7.28e-12  8.33e-01     1s
   9   1.25246253e+04 -2.10536036e+04  2.58e-05 7.28e-12  3.10e-01     1s
  10   6.97519894e+03 -6.30883095e+03  1.17e-05 3.64e-12  1.23e-01     1s
  11   4.70585185e+03 -1.67921816e+03  7.06e-06 3.64e-12  5.90e-02     1s
  12   3.24972192e+03 -4.71472248e+02  4.12e-06 1.46e-11  3.44e-02     1s
  13   2.56749078e+03  1.48916246e+02  2.79e-06 7.28e-12  2.24e-02     1s
  14   2.06653104e+03  4.90967735e+02  1.85e-06 7.28e-12  1.46e-02     1s
  15   1.67112674e+03  6.96027024e+02  1.11e-06 3.64e-12  9.02e-03     1s
  16   1.38551107e+03  8.52556035e+02  5.99e-07 7.28e-12  4.93e-03     1s
  17   1.26557723e+03  9.91246321e+02  3.77e-07 1.46e-11  2.54e-03     1s
  18   1.17945186e+03  1.02370289e+03  2.25e-07 7.28e-12  1.44e-03     1s
  19   1.13642521e+03  1.03479329e+03  1.48e-07 7.28e-12  9.40e-04     1s
  20   1.10975705e+03  1.04166846e+03  1.00e-07 7.28e-12  6.30e-04     1s
  21   1.07725184e+03  1.04564110e+03  4.22e-08 7.28e-12  2.92e-04     1s
  22   1.06652396e+03  1.04818939e+03  2.31e-08 7.28e-12  1.70e-04     1s
  23   1.06015463e+03  1.05119978e+03  1.19e-08 7.28e-12  8.28e-05     1s
  24   1.05631372e+03  1.05163385e+03  5.38e-09 7.28e-12  4.33e-05     1s
  25   1.05483236e+03  1.05258236e+03  2.90e-09 7.28e-12  2.08e-05     1s
  26   1.05356685e+03  1.05286182e+03  8.30e-10 7.28e-12  6.52e-06     1s
  27   1.05330504e+03  1.05297732e+03  2.07e-09 7.28e-12  3.03e-06     1s
  28   1.05313136e+03  1.05299876e+03  8.05e-09 1.46e-11  1.23e-06     1s
  29   1.05306553e+03  1.05301146e+03  6.15e-09 7.28e-12  5.00e-07     1s
  30   1.05303897e+03  1.05301859e+03  2.72e-09 7.28e-12  1.88e-07     1s
  31   1.05302740e+03  1.05302645e+03  2.07e-09 7.28e-12  8.81e-09     1s
  32   1.05302689e+03  1.05302685e+03  1.93e-09 7.28e-12  3.56e-10     2s
  33   1.05302689e+03  1.05302688e+03  1.32e-09 7.28e-12  5.08e-11     2s

Barrier solved model in 33 iterations and 1.53 seconds (1.37 work units)
Optimal objective 1.05302689e+03


Root relaxation: objective 1.053027e+03, 2878 iterations, 1.54 seconds (1.16 work units)

    Nodes    |    Current Node    |     Objective Bounds      |     Work
 Expl Unexpl |  Obj  Depth IntInf | Incumbent    BestBd   Gap | It/Node Time

     0     0 1053.02689    0   23          - 1053.02689      -     -    2s
H    0     0                    6120.1120720 1053.02689  82.8%     -    4s
H    0     0                    2463.7001268 1053.02689  57.3%     -    6s
     0     0 1075.48974    0   22 2463.70013 1075.48974  56.3%     -    9s
H    0     0                    1257.9007275 1075.48974  14.5%     -   10s
     0     0 1075.48974    0   21 1257.90073 1075.48974  14.5%     -   10s
     0     0 1076.38907    0   21 1257.90073 1076.38907  14.4%     -   11s
     0     0 1076.39612    0   21 1257.90073 1076.39612  14.4%     -   12s
     0     0 1076.39625    0   21 1257.90073 1076.39625  14.4%     -   12s
     0     0 1078.44295    0   21 1257.90073 1078.44295  14.3%     -   14s
H    0     0                    1253.5747936 1078.44295  14.0%     -   15s
     0     0 1088.47331    0   21 1253.57479 1088.47331  13.2%     -   15s
     0     0 1090.74866    0   20 1253.57479 1090.74866  13.0%     -   17s
     0     0 1090.74866    0   20 1253.57479 1090.74866  13.0%     -   17s
     0     0 1090.74866    0   20 1253.57479 1090.74866  13.0%     -   17s
     0     0 1090.74866    0   20 1253.57479 1090.74866  13.0%     -   19s
H    0     0                    1215.5151829 1090.74866  10.3%     -  244s
     0     2 1090.74866    0   20 1215.51518 1090.74866  10.3%     -  246s
     3     8 1131.17193    2   17 1215.51518 1100.68828  9.45%  1988  251s
     7    16 1208.82867    3   18 1215.51518 1113.79301  8.37%  1932  255s
    31    36 1132.12074    5   17 1215.51518 1127.02949  7.28%  1295  266s
    57    58 1142.16300    6   16 1215.51518 1132.20447  6.85%  1411  272s
    93    74 1157.48915    7   15 1215.51518 1142.21573  6.03%  1425  275s
   165    92 1166.78029    9   13 1215.51518 1148.12231  5.54%  1021  283s
   201    93 1171.54841   10   13 1215.51518 1148.12231  5.54%  1012  286s
   242   104 1181.32127   11   12 1215.51518 1148.12231  5.54%   924  291s
   327   116     cutoff   13      1215.51518 1148.12231  5.54%   831  298s
   377   102 1184.60005   12   11 1215.51518 1148.12231  5.54%   795  304s
   442   106 1208.89317   14    7 1215.51518 1148.12231  5.54%   777  313s
   509    80     cutoff   15      1215.51518 1148.12231  5.54%   764  321s
   587    56 1214.99160   16    6 1215.51518 1148.12231  5.54%   729  329s
   657    63 infeasible   17      1215.51518 1154.52376  5.02%   725  337s
   718    51     cutoff    9      1215.51518 1154.52376  5.02%   722  342s
   799    45 1184.19983   10   13 1215.51518 1154.52376  5.02%   673  407s
   855    42 1201.06342   11    9 1215.51518 1154.52376  5.02%   652  411s
   929    27     cutoff   12      1215.51518 1165.51618  4.11%   627  418s
  1002    16     cutoff   14      1215.51518 1185.46129  2.47%   613  422s

Cutting planes:
  Gomory: 2
  Implied bound: 229
  MIR: 463
  RLT: 1

Explored 1033 nodes (635873 simplex iterations) in 422.68 seconds (481.37 work units)
Thread count was 36 (of 36 available processors)

Solution count 5: 1215.52 1253.57 1257.9 ... 6120.11

Optimal solution found (tolerance 1.00e-02)
Best objective 1.215515182868e+03, best bound 1.208124526228e+03, gap 0.6080%

Gurobi 11.0.0 (linux64) logging started Thu Sep 19 18:21:39 2024

Set parameter LogFile to value "/lustre1/scratch/348/vsc34888/JointResearch/05.Models/06.Benchmarking/L.Cont_Investments_per_hour/IEEE118_mod1_ByStages_nc80/openStarNet_IEEE118_mod1_ByStages_nc80.log"
Set parameter Method to value 2
Set parameter MIPFocus to value 1
Set parameter Presolve to value 2
Set parameter RINS to value 100
Set parameter MIPGap to value 0.01
Set parameter Threads to value 36
Set parameter TimeLimit to value 259200
Set parameter IterationLimit to value 760000000
Gurobi Optimizer version 11.0.0 build v11.0.0rc2 (linux64 - "Rocky Linux 8.9 (Green Obsidian)")

CPU model: Intel(R) Xeon(R) Gold 6240 CPU @ 2.60GHz, instruction set [SSE2|AVX|AVX2|AVX512]
Thread count: 36 physical cores, 36 logical processors, using up to 36 threads

Optimize a model with 113683 rows, 83762 columns and 281414 nonzeros
Model fingerprint: 0x6b9f7518
Coefficient statistics:
  Matrix range     [5e-04, 9e+03]
  Objective range  [1e+00, 1e+00]
  Bounds range     [1e-04, 3e+00]
  RHS range        [2e-04, 3e+02]
Presolve removed 85078 rows and 37045 columns
Presolve time: 0.16s
Presolved: 28605 rows, 46882 columns, 112521 nonzeros

Ordering time: 0.01s

Barrier statistics:
 AA' NZ     : 9.536e+04
 Factor NZ  : 3.785e+05 (roughly 33 MB of memory)
 Factor Ops : 5.514e+06 (less than 1 second per iteration)
 Threads    : 36

                  Objective                Residual
Iter       Primal          Dual         Primal    Dual     Compl     Time
   0   1.44549610e+07 -6.66300457e+08  9.02e+01 1.10e+02  2.51e+04     0s
   1   1.65784706e+06 -1.95222427e+08  8.93e+00 2.44e-12  3.30e+03     0s
   2   4.08109116e+05 -3.26857120e+07  1.26e+00 2.57e-12  4.44e+02     0s
   3   1.93232016e+05 -4.54592370e+06  3.43e-02 2.03e-12  4.76e+01     0s
   4   9.38999830e+04 -7.57182133e+05  5.15e-03 2.27e-12  8.34e+00     0s
   5   3.78246781e+04 -2.04942375e+05  1.43e-03 1.36e-12  2.37e+00     0s
   6   1.55108923e+04 -5.54246982e+04  3.86e-04 4.55e-13  6.92e-01     0s
   7   9.81907765e+03 -2.01963507e+04  1.99e-04 4.55e-13  2.93e-01     0s
   8   5.69176703e+03 -7.08316543e+03  8.40e-05 4.55e-13  1.25e-01     0s
   9   3.72663460e+03 -2.17108433e+03  4.18e-05 6.82e-13  5.75e-02     0s
  10   2.87766972e+03 -7.46014319e+02  2.68e-05 4.55e-13  3.53e-02     0s
  11   2.09416777e+03  2.07110327e+02  1.33e-05 4.55e-13  1.84e-02     0s
  12   1.79621721e+03  6.39425837e+02  8.61e-06 4.55e-13  1.13e-02     0s
  13   1.46789130e+03  9.70040013e+02  3.54e-06 4.55e-13  4.86e-03     0s
  14   1.40330556e+03  1.05709546e+03  2.59e-06 4.55e-13  3.38e-03     0s
  15   1.31899470e+03  1.12710496e+03  1.38e-06 4.55e-13  1.87e-03     0s
  16   1.29375041e+03  1.16236762e+03  1.04e-06 4.55e-13  1.28e-03     0s
  17   1.25196628e+03  1.18772314e+03  4.75e-07 4.55e-13  6.27e-04     0s
  18   1.22781751e+03  1.20298100e+03  1.53e-07 4.55e-13  2.42e-04     0s
  19   1.22024039e+03  1.20844627e+03  5.64e-08 9.09e-13  1.15e-04     0s
  20   1.21676859e+03  1.21308091e+03  1.27e-08 4.55e-13  3.60e-05     0s
  21   1.21578636e+03  1.21532919e+03  2.40e-09 4.55e-13  4.46e-06     1s
  22   1.21555327e+03  1.21550623e+03  2.99e-10 9.09e-13  4.59e-07     1s
  23   1.21551877e+03  1.21551470e+03  5.35e-11 6.82e-13  3.97e-08     1s
  24   1.21551519e+03  1.21551518e+03  4.92e-11 4.55e-13  1.05e-10     1s
  25   1.21551518e+03  1.21551518e+03  3.14e-12 3.41e-13  9.17e-16     1s

Barrier solved model in 25 iterations and 0.57 seconds (0.50 work units)
Optimal objective 1.21551518e+03

Crossover log...

    8334 DPushes remaining with DInf 0.0000000e+00                 1s
       0 DPushes remaining with DInf 0.0000000e+00                 1s

     356 PPushes remaining with PInf 0.0000000e+00                 1s
       0 PPushes remaining with PInf 0.0000000e+00                 1s

  Push phase complete: Pinf 0.0000000e+00, Dinf 2.7888089e-12      1s

Iteration    Objective       Primal Inf.    Dual Inf.      Time
    2140    1.2155152e+03   0.000000e+00   0.000000e+00      1s

Solved in 2140 iterations and 0.79 seconds (0.60 work units)
Optimal objective  1.215515183e+03

Gurobi 11.0.0 (linux64) logging started Sun Sep 22 10:47:06 2024

Set parameter LogFile to value "/lustre1/scratch/348/vsc34888/JointResearch/05.Models/06.Benchmarking/L.Cont_Investments_per_hour/IEEE118_mod1_ByStages_nc80/openStarNet_IEEE118_mod1_ByStages_nc80.log"
Set parameter Method to value 2
Set parameter MIPFocus to value 1
Set parameter Presolve to value 2
Set parameter RINS to value 100
Set parameter MIPGap to value 0.01
Set parameter Threads to value 36
Set parameter TimeLimit to value 259200
Set parameter IterationLimit to value 760000000
Gurobi Optimizer version 11.0.0 build v11.0.0rc2 (linux64 - "Rocky Linux 8.9 (Green Obsidian)")

CPU model: Intel(R) Xeon(R) Gold 6240 CPU @ 2.60GHz, instruction set [SSE2|AVX|AVX2|AVX512]
Thread count: 36 physical cores, 36 logical processors, using up to 36 threads

Optimize a model with 113683 rows, 83762 columns and 281414 nonzeros
Model fingerprint: 0xe87376d3
Coefficient statistics:
  Matrix range     [5e-04, 9e+03]
  Objective range  [1e+00, 1e+00]
  Bounds range     [1e-04, 3e+00]
  RHS range        [2e-04, 3e+00]
Presolve removed 86169 rows and 39335 columns
Presolve time: 0.15s
Presolved: 27514 rows, 45690 columns, 109047 nonzeros

Ordering time: 0.01s

Barrier statistics:
 AA' NZ     : 9.548e+04
 Factor NZ  : 3.696e+05 (roughly 30 MB of memory)
 Factor Ops : 5.563e+06 (less than 1 second per iteration)
 Threads    : 36

                  Objective                Residual
Iter       Primal          Dual         Primal    Dual     Compl     Time
   0   1.72329435e+07 -5.98822070e+08  1.15e+02 1.01e+02  3.10e+04     0s
   1   1.65176049e+06 -2.09363397e+08  9.38e+00 2.54e-12  3.71e+03     0s
   2   4.55497658e+05 -3.95413328e+07  1.45e+00 2.60e-12  5.58e+02     0s
   3   2.23237912e+05 -6.11674733e+06  5.26e-02 2.79e-12  6.58e+01     0s
   4   1.43275306e+05 -9.14597683e+05  8.44e-03 1.50e-11  1.06e+01     0s
   5   8.51540417e+04 -2.80049372e+05  3.91e-03 4.32e-12  3.66e+00     0s
   6   5.15217526e+04 -1.11201257e+05  1.98e-03 1.76e-12  1.63e+00     0s
   7   3.82804120e+04 -4.36086695e+04  1.29e-03 8.53e-13  8.19e-01     0s
   8   3.26260624e+04 -2.15246297e+04  1.00e-03 4.97e-13  5.41e-01     0s
   9   2.36530228e+04 -3.77982998e+03  5.64e-04 4.55e-13  2.74e-01     0s
  10   2.05011367e+04  1.04643325e+03  4.16e-04 4.55e-13  1.94e-01     0s
  11   1.67980431e+04  5.96675522e+03  2.48e-04 4.55e-13  1.08e-01     0s
  12   1.40505347e+04  8.52537873e+03  1.28e-04 4.55e-13  5.52e-02     0s
  13   1.27353092e+04  9.59532235e+03  7.26e-05 4.55e-13  3.14e-02     0s
  14   1.22479805e+04  1.01103116e+04  5.24e-05 4.55e-13  2.13e-02     0s
  15   1.17706865e+04  1.04196818e+04  3.30e-05 4.55e-13  1.35e-02     0s
  16   1.14520460e+04  1.05870882e+04  2.04e-05 4.55e-13  8.64e-03     0s
  17   1.12425581e+04  1.07390705e+04  1.22e-05 4.55e-13  5.03e-03     0s
  18   1.11117815e+04  1.08314653e+04  7.27e-06 4.55e-13  2.80e-03     0s
  19   1.10273327e+04  1.08674599e+04  4.07e-06 4.55e-13  1.60e-03     0s
  20   1.09649564e+04  1.08901430e+04  1.72e-06 4.55e-13  7.47e-04     0s
  21   1.09406487e+04  1.09048176e+04  8.43e-07 4.55e-13  3.58e-04     0s
  22   1.09256348e+04  1.09120110e+04  3.09e-07 4.55e-13  1.36e-04     0s
  23   1.09169447e+04  1.09158408e+04  1.30e-08 4.55e-13  1.10e-05     0s
  24   1.09165126e+04  1.09163705e+04  6.31e-10 4.55e-13  1.42e-06     0s
  25   1.09164860e+04  1.09164701e+04  1.87e-10 4.55e-13  1.59e-07     0s
  26   1.09164824e+04  1.09164794e+04  1.85e-10 4.55e-13  3.01e-08     1s
  27   1.09164820e+04  1.09164819e+04  1.29e-10 6.82e-13  1.29e-09     1s
  28   1.09164820e+04  1.09164820e+04  3.92e-11 4.55e-13  2.06e-11     1s

Barrier solved model in 28 iterations and 0.53 seconds (0.52 work units)
Optimal objective 1.09164820e+04

Crossover log...

    8048 DPushes remaining with DInf 0.0000000e+00                 1s
       0 DPushes remaining with DInf 0.0000000e+00                 1s

     635 PPushes remaining with PInf 0.0000000e+00                 1s
       0 PPushes remaining with PInf 0.0000000e+00                 1s

  Push phase complete: Pinf 0.0000000e+00, Dinf 2.3506016e-11      1s

Iteration    Objective       Primal Inf.    Dual Inf.      Time
    2767    1.0916482e+04   0.000000e+00   0.000000e+00      1s

Solved in 2767 iterations and 0.75 seconds (0.62 work units)
Optimal objective  1.091648198e+04

Gurobi 11.0.0 (linux64) logging started Sun Sep 22 10:47:20 2024

Set parameter LogFile to value "/lustre1/scratch/348/vsc34888/JointResearch/05.Models/06.Benchmarking/L.Cont_Investments_per_hour/IEEE118_mod1_ByStages_nc80/openStarNet_IEEE118_mod1_ByStages_nc80.log"
Set parameter Method to value 2
Set parameter MIPFocus to value 1
Set parameter Presolve to value 2
Set parameter RINS to value 100
Set parameter MIPGap to value 0.01
Set parameter Threads to value 36
Set parameter TimeLimit to value 259200
Set parameter IterationLimit to value 760000000
Gurobi Optimizer version 11.0.0 build v11.0.0rc2 (linux64 - "Rocky Linux 8.9 (Green Obsidian)")

CPU model: Intel(R) Xeon(R) Gold 6240 CPU @ 2.60GHz, instruction set [SSE2|AVX|AVX2|AVX512]
Thread count: 36 physical cores, 36 logical processors, using up to 36 threads

Optimize a model with 113683 rows, 83762 columns and 281414 nonzeros
Model fingerprint: 0xe87376d3
Coefficient statistics:
  Matrix range     [5e-04, 9e+03]
  Objective range  [1e+00, 1e+00]
  Bounds range     [1e-04, 3e+00]
  RHS range        [2e-04, 3e+00]
Presolve removed 86169 rows and 39335 columns
Presolve time: 0.16s
Presolved: 27514 rows, 45690 columns, 109047 nonzeros

Ordering time: 0.01s

Barrier statistics:
 AA' NZ     : 9.548e+04
 Factor NZ  : 3.696e+05 (roughly 30 MB of memory)
 Factor Ops : 5.563e+06 (less than 1 second per iteration)
 Threads    : 36

                  Objective                Residual
Iter       Primal          Dual         Primal    Dual     Compl     Time
   0   1.72329435e+07 -5.98822070e+08  1.15e+02 1.01e+02  3.10e+04     0s
   1   1.65176049e+06 -2.09363397e+08  9.38e+00 2.54e-12  3.71e+03     0s
   2   4.55497658e+05 -3.95413328e+07  1.45e+00 2.60e-12  5.58e+02     0s
   3   2.23237912e+05 -6.11674733e+06  5.26e-02 2.79e-12  6.58e+01     0s
   4   1.43275306e+05 -9.14597683e+05  8.44e-03 1.50e-11  1.06e+01     0s
   5   8.51540417e+04 -2.80049372e+05  3.91e-03 4.32e-12  3.66e+00     0s
   6   5.15217526e+04 -1.11201257e+05  1.98e-03 1.76e-12  1.63e+00     0s
   7   3.82804120e+04 -4.36086695e+04  1.29e-03 8.53e-13  8.19e-01     0s
   8   3.26260624e+04 -2.15246297e+04  1.00e-03 4.97e-13  5.41e-01     0s
   9   2.36530228e+04 -3.77982998e+03  5.64e-04 4.55e-13  2.74e-01     0s
  10   2.05011367e+04  1.04643325e+03  4.16e-04 4.55e-13  1.94e-01     0s
  11   1.67980431e+04  5.96675522e+03  2.48e-04 4.55e-13  1.08e-01     0s
  12   1.40505347e+04  8.52537873e+03  1.28e-04 4.55e-13  5.52e-02     0s
  13   1.27353092e+04  9.59532235e+03  7.26e-05 4.55e-13  3.14e-02     0s
  14   1.22479805e+04  1.01103116e+04  5.24e-05 4.55e-13  2.13e-02     0s
  15   1.17706865e+04  1.04196818e+04  3.30e-05 4.55e-13  1.35e-02     0s
  16   1.14520460e+04  1.05870882e+04  2.04e-05 4.55e-13  8.64e-03     0s
  17   1.12425581e+04  1.07390705e+04  1.22e-05 4.55e-13  5.03e-03     0s
  18   1.11117815e+04  1.08314653e+04  7.27e-06 4.55e-13  2.80e-03     0s
  19   1.10273327e+04  1.08674599e+04  4.07e-06 4.55e-13  1.60e-03     0s
  20   1.09649564e+04  1.08901430e+04  1.72e-06 4.55e-13  7.47e-04     0s
  21   1.09406487e+04  1.09048176e+04  8.43e-07 4.55e-13  3.58e-04     0s
  22   1.09256348e+04  1.09120110e+04  3.09e-07 4.55e-13  1.36e-04     0s
  23   1.09169447e+04  1.09158408e+04  1.30e-08 4.55e-13  1.10e-05     0s
  24   1.09165126e+04  1.09163705e+04  6.31e-10 4.55e-13  1.42e-06     0s
  25   1.09164860e+04  1.09164701e+04  1.87e-10 4.55e-13  1.59e-07     0s
  26   1.09164824e+04  1.09164794e+04  1.85e-10 4.55e-13  3.01e-08     1s
  27   1.09164820e+04  1.09164819e+04  1.29e-10 6.82e-13  1.29e-09     1s
  28   1.09164820e+04  1.09164820e+04  3.92e-11 4.55e-13  2.06e-11     1s

Barrier solved model in 28 iterations and 0.53 seconds (0.52 work units)
Optimal objective 1.09164820e+04

Crossover log...

    8048 DPushes remaining with DInf 0.0000000e+00                 1s
       0 DPushes remaining with DInf 0.0000000e+00                 1s

     635 PPushes remaining with PInf 0.0000000e+00                 1s
       0 PPushes remaining with PInf 0.0000000e+00                 1s

  Push phase complete: Pinf 0.0000000e+00, Dinf 2.3506016e-11      1s

Iteration    Objective       Primal Inf.    Dual Inf.      Time
    2767    1.0916482e+04   0.000000e+00   0.000000e+00      1s

Solved in 2767 iterations and 0.75 seconds (0.62 work units)
Optimal objective  1.091648198e+04
